proyfinal/src/viki/013/experimentInOfficeAgust.take6.output/6718b9f5-f907-4051-b5cc-b8f9feabf337.als.dat
{'cnf.clauses': '118081',
 'cnf.totvars': '69608',
 'conflict literals': '175',
 'conflicts': '36',
 'decisions': '2539',
 'memused.mb': '18.80',
 'outcome': 'UNSAT',
 'propagations': '73404',
 'restarts': '1',
 'solver.msecs': 37,
 'task.msecs': 108}
