proyfinal/src/viki/013/experimentInOfficeAgust.take6.output/6718b9f5-f907-4051-b5cc-b8f9feabf337.als.out
Reading from standard input... Use '--help' for help.
============================[ Problem Statistics ]=============================
|                                                                             |
|  Number of variables:         69608                                         |
|  Number of clauses:          118081                                         |
|  Parse time:                   0.03 s                                       |
|                                                                             |
============================[ Search Statistics ]==============================
| Conflicts |          ORIGINAL         |          LEARNT          | Progress |
|           |    Vars  Clauses Literals |    Limit  Clauses Lit/Cl |          |
===============================================================================
===============================================================================
restarts              : 1
conflicts             : 36             (953 /sec)
decisions             : 2539           (0.00 % random) (67221 /sec)
propagations          : 73404          (1943396 /sec)
conflict literals     : 175            (18.60 % deleted)
Memory used           : 18.80 MB
CPU time              : 0.037771 s

UNSATISFIABLE
